6035.0
0 0 1 0 1 0 0 1 0 0 1 1 0 0 0 0 0 0 0 0 0 0 0 0 0 0 1 0 0 0 


15 16 17 18 19 20 35 36 38 41 42 54 60 

21 22 23 24 25 26 37 


27 28 29 30 31 32 33 52 


0 1 2 3 4 5 6 34 40 50 62 
7 8 9 10 11 12 13 14 39 43 53 61 68 














44 45 46 47 48 49 51 55 56 57 58 59 63 64 65 66 67 69 



